10
0 6 2 8 8 7 4 1 1 5 
3 0 4 10 8 10 7 6 2 7 
10 7 0 10 9 4 7 2 8 6 
7 4 4 0 4 3 3 7 8 5 
8 2 10 2 0 7 10 2 2 4 
3 10 3 2 4 0 1 2 4 7 
6 5 9 7 6 1 0 2 4 7 
7 8 9 2 4 3 8 0 9 1 
3 4 6 8 7 9 4 6 0 3 
8 8 6 4 5 3 3 5 1 0 
